
Gurobi 9.1.2 (win64, Java) logging started Sat Nov  6 21:16:49 2021

Academic license - for non-commercial use only - expires 2022-10-30
Gurobi Optimizer version 9.1.2 build v9.1.2rc0 (win64)
Thread count: 6 physical cores, 12 logical processors, using up to 12 threads
Optimize a model with 40 rows, 400 columns and 800 nonzeros
Model fingerprint: 0x6dd6023b
Variable types: 0 continuous, 400 integer (400 binary)
Coefficient statistics:
  Matrix range     [1e+00, 9e+02]
  Objective range  [4e+02, 1e+03]
  Bounds range     [1e+00, 1e+00]
  RHS range        [1e+00, 6e+02]
Found heuristic solution: objective 6253.0000000
Presolve removed 24 rows and 350 columns
Presolve time: 0.02s
Presolved: 16 rows, 50 columns, 100 nonzeros
Variable types: 0 continuous, 50 integer (50 binary)
Presolved: 16 rows, 50 columns, 100 nonzeros


Root relaxation: objective 7.171000e+03, 10 iterations, 0.00 seconds

    Nodes    |    Current Node    |     Objective Bounds      |     Work
 Expl Unexpl |  Obj  Depth IntInf | Incumbent    BestBd   Gap | It/Node Time

*    0     0               0    7171.0000000 7171.00000  0.00%     -    0s

Explored 0 nodes (10 simplex iterations) in 0.04 seconds
Thread count was 12 (of 12 available processors)

Solution count 2: 7171 6253 

Optimal solution found (tolerance 1.00e-04)
Best objective 7.171000000000e+03, best bound 7.171000000000e+03, gap 0.0000%
